NAME: instance_1143
TYPE: TSP
DIMENSION: 20
EDGE_WEIGHT_TYPE: EUC_2D
NODE_COORD_SECTION
0 85.53 85.82
1 80.82 13.25
2 66.64 65.37
3 50.45 44.24
4 68.52 68.88
5 17.17 39.81
6 37.67 74.22
7 64.85 37.60
8 66.83 80.66
9 75.09 47.88
10 34.35 98.53
11 80.68 24.05
12 92.68 23.50
13 10.71 78.40
14 98.84 66.55
15 76.83 93.05
16 44.78 56.10
17 29.66 50.14
18 64.21 2.02
19 16.91 90.22
EOF
